N: 500
R: 1000
Capacities: 123199
------
Total value: 123199
Total weight: 123199
Packed Items: [0, 1, 2, 3, 4, 5, 6, 7, 8, 9, 10, 11, 12, 13, 14, 15, 16, 17, 18, 19, 20, 21, 22, 23, 24, 25, 26, 27, 28, 29, 30, 31, 32, 33, 34, 35, 36, 37, 38, 39, 40, 41, 42, 43, 44, 45, 46, 47, 48, 49, 50, 51, 52, 53, 54, 55, 56, 57, 58, 59, 60, 61, 62, 63, 64, 65, 66, 67, 68, 69, 70, 71, 72, 73, 74, 75, 76, 77, 78, 79, 80, 81, 82, 83, 84, 85, 86, 87, 88, 89, 90, 91, 92, 93, 94, 95, 96, 97, 98, 99, 100, 101, 102, 103, 104, 105, 106, 107, 108, 109, 110, 111, 112, 113, 114, 115, 116, 117, 118, 119, 120, 121, 122, 123, 124, 125, 126, 127, 128, 129, 130, 131, 132, 133, 134, 135, 136, 137, 138, 139, 140, 141, 142, 143, 144, 145, 146, 147, 148, 149, 150, 151, 152, 153, 154, 155, 156, 157, 158, 159, 160, 161, 162, 163, 164, 165, 166, 167, 168, 169, 170, 171, 172, 173, 174, 175, 176, 177, 178, 179, 180, 181, 182, 183, 184, 185, 186, 187, 188, 189, 190, 191, 192, 193, 194, 195, 196, 197, 198, 199, 200, 201, 202, 203, 204, 205, 206, 207, 208, 209, 210, 211, 212, 213, 214, 215, 216, 217, 218, 219, 220, 221, 222, 223, 224, 225, 226, 227, 228, 229, 230, 231, 232, 234, 235, 236, 237, 238, 239, ]
Packed Weights: [623, 742, 796, 943, 740, 923, 30, 466, 944, 649, 901, 114, 470, 247, 544, 574, 14, 217, 280, 917, 766, 160, 798, 139, 618, 127, 2, 872, 210, 216, 983, 873, 290, 962, 540, 678, 205, 941, 691, 967, 894, 299, 362, 166, 146, 66, 302, 604, 4, 678, 338, 310, 819, 481, 316, 482, 705, 58, 976, 23, 750, 845, 19, 788, 367, 579, 10, 47, 181, 956, 197, 756, 930, 943, 345, 355, 525, 776, 109, 749, 798, 860, 37, 946, 92, 341, 611, 919, 340, 925, 546, 313, 317, 178, 79, 149, 690, 997, 162, 49, 987, 534, 406, 238, 594, 827, 456, 422, 56, 917, 33, 494, 839, 131, 732, 950, 631, 789, 107, 435, 150, 845, 295, 454, 1000, 853, 977, 454, 489, 730, 480, 292, 404, 147, 378, 989, 960, 627, 500, 339, 90, 273, 783, 868, 362, 787, 775, 695, 665, 760, 364, 705, 281, 486, 770, 691, 294, 946, 650, 581, 12, 547, 251, 672, 463, 817, 648, 798, 348, 645, 738, 829, 351, 843, 870, 689, 977, 957, 519, 530, 167, 837, 938, 478, 692, 720, 731, 172, 781, 581, 666, 421, 624, 775, 637, 721, 28, 161, 442, 651, 220, 686, 631, 42, 472, 227, 55, 134, 318, 182, 194, 36, 466, 381, 612, 591, 238, 904, 1, 406, 279, 411, 116, 832, 374, 37, 614, 95, 546, 340, 581, 959, 819, 813, 643, 370, 143, 596, 564, ]
Time Consuming: 0.0